4 1 5 10 17 18 9 6 15 19 8 7 0 16 14 3 12 11 13 2
1 17 4 0 5 9 6 10 18 7 8 19 15 14 11 3 12 16 2 13
0 12 4 1 5 6 17 10 18 19 8 14 3 7 15 9 16 11 2 13
1 5 19 4 17 6 10 7 14 18 11 15 8 3 0 9 12 13 16 2
4 1 10 18 17 8 5 19 6 15 9 7 14 11 0 3 2 12 16 13
4 5 1 10 19 8 14 18 6 15 17 11 12 0 2 13 3 7 9 16
4 1 5 17 10 6 18 15 7 9 8 14 3 11 12 0 16 2 19 13
1 4 17 6 18 5 7 10 8 14 19 0 15 9 16 12 13 3 11 2
4 5 1 10 8 6 0 19 7 15 11 12 16 3 13 2 18 9 14 17
1 5 4 18 17 10 6 7 14 15 0 3 9 12 19 2 16 11 13 8